example_dbs/sudoku.fzn
predicate all_different_int(array [int] of var int: x);
var 1..9: X_INTRODUCED_1_;
var 1..9: X_INTRODUCED_3_;
var 1..9: X_INTRODUCED_5_;
var 1..9: X_INTRODUCED_7_;
var 1..9: X_INTRODUCED_9_;
var 1..9: X_INTRODUCED_11_;
var 1..9: X_INTRODUCED_13_;
var 1..9: X_INTRODUCED_15_;
var 1..9: X_INTRODUCED_17_;
var 1..9: X_INTRODUCED_19_;
var 1..9: X_INTRODUCED_21_;
var 1..9: X_INTRODUCED_23_;
var 1..9: X_INTRODUCED_25_;
var 1..9: X_INTRODUCED_27_;
var 1..9: X_INTRODUCED_29_;
var 1..9: X_INTRODUCED_31_;
var 1..9: X_INTRODUCED_33_;
var 1..9: X_INTRODUCED_35_;
var 1..9: X_INTRODUCED_37_;
var 1..9: X_INTRODUCED_39_;
var 1..9: X_INTRODUCED_41_;
var 1..9: X_INTRODUCED_43_;
var 1..9: X_INTRODUCED_45_;
var 1..9: X_INTRODUCED_47_;
var 1..9: X_INTRODUCED_49_;
var 1..9: X_INTRODUCED_51_;
var 1..9: X_INTRODUCED_53_;
var 1..9: X_INTRODUCED_55_;
var 1..9: X_INTRODUCED_57_;
var 1..9: X_INTRODUCED_59_;
var 1..9: X_INTRODUCED_61_;
var 1..9: X_INTRODUCED_63_;
var 1..9: X_INTRODUCED_65_;
var 1..9: X_INTRODUCED_67_;
var 1..9: X_INTRODUCED_69_;
var 1..9: X_INTRODUCED_71_;
var 1..9: X_INTRODUCED_73_;
var 1..9: X_INTRODUCED_75_;
var 1..9: X_INTRODUCED_77_;
var 1..9: X_INTRODUCED_79_;
var 1..9: X_INTRODUCED_81_;
var 1..9: X_INTRODUCED_83_;
var 1..9: X_INTRODUCED_85_;
var 1..9: X_INTRODUCED_87_;
var 1..9: X_INTRODUCED_89_;
var 1..9: X_INTRODUCED_91_;
var 1..9: X_INTRODUCED_93_;
var 1..9: X_INTRODUCED_95_;
var 1..9: X_INTRODUCED_97_;
var 1..9: X_INTRODUCED_99_;
var 1..9: X_INTRODUCED_101_;
var 1..9: X_INTRODUCED_103_;
var 1..9: X_INTRODUCED_105_;
array [1..81] of var int: puzzle:: output_array([1..9,1..9]) = [X_INTRODUCED_105_,X_INTRODUCED_103_,X_INTRODUCED_101_,X_INTRODUCED_99_,X_INTRODUCED_97_,X_INTRODUCED_95_,X_INTRODUCED_93_,X_INTRODUCED_91_,X_INTRODUCED_89_,X_INTRODUCED_87_,6,8,4,X_INTRODUCED_85_,1,X_INTRODUCED_83_,7,X_INTRODUCED_81_,X_INTRODUCED_79_,X_INTRODUCED_77_,X_INTRODUCED_75_,X_INTRODUCED_73_,8,5,X_INTRODUCED_71_,3,X_INTRODUCED_69_,X_INTRODUCED_67_,2,6,8,X_INTRODUCED_65_,9,X_INTRODUCED_63_,4,X_INTRODUCED_61_,X_INTRODUCED_59_,X_INTRODUCED_57_,7,X_INTRODUCED_55_,X_INTRODUCED_53_,X_INTRODUCED_51_,9,X_INTRODUCED_49_,X_INTRODUCED_47_,X_INTRODUCED_45_,5,X_INTRODUCED_43_,1,X_INTRODUCED_41_,6,3,2,X_INTRODUCED_39_,X_INTRODUCED_37_,4,X_INTRODUCED_35_,6,1,X_INTRODUCED_33_,X_INTRODUCED_31_,X_INTRODUCED_29_,X_INTRODUCED_27_,X_INTRODUCED_25_,3,X_INTRODUCED_23_,2,X_INTRODUCED_21_,7,6,9,X_INTRODUCED_19_,X_INTRODUCED_17_,X_INTRODUCED_15_,X_INTRODUCED_13_,X_INTRODUCED_11_,X_INTRODUCED_9_,X_INTRODUCED_7_,X_INTRODUCED_5_,X_INTRODUCED_3_,X_INTRODUCED_1_];
array [1..81] of var int: X_INTRODUCED_106_ ::var_is_introduced  = [X_INTRODUCED_105_,X_INTRODUCED_103_,X_INTRODUCED_101_,X_INTRODUCED_99_,X_INTRODUCED_97_,X_INTRODUCED_95_,X_INTRODUCED_93_,X_INTRODUCED_91_,X_INTRODUCED_89_,X_INTRODUCED_87_,6,8,4,X_INTRODUCED_85_,1,X_INTRODUCED_83_,7,X_INTRODUCED_81_,X_INTRODUCED_79_,X_INTRODUCED_77_,X_INTRODUCED_75_,X_INTRODUCED_73_,8,5,X_INTRODUCED_71_,3,X_INTRODUCED_69_,X_INTRODUCED_67_,2,6,8,X_INTRODUCED_65_,9,X_INTRODUCED_63_,4,X_INTRODUCED_61_,X_INTRODUCED_59_,X_INTRODUCED_57_,7,X_INTRODUCED_55_,X_INTRODUCED_53_,X_INTRODUCED_51_,9,X_INTRODUCED_49_,X_INTRODUCED_47_,X_INTRODUCED_45_,5,X_INTRODUCED_43_,1,X_INTRODUCED_41_,6,3,2,X_INTRODUCED_39_,X_INTRODUCED_37_,4,X_INTRODUCED_35_,6,1,X_INTRODUCED_33_,X_INTRODUCED_31_,X_INTRODUCED_29_,X_INTRODUCED_27_,X_INTRODUCED_25_,3,X_INTRODUCED_23_,2,X_INTRODUCED_21_,7,6,9,X_INTRODUCED_19_,X_INTRODUCED_17_,X_INTRODUCED_15_,X_INTRODUCED_13_,X_INTRODUCED_11_,X_INTRODUCED_9_,X_INTRODUCED_7_,X_INTRODUCED_5_,X_INTRODUCED_3_,X_INTRODUCED_1_];
constraint all_different_int([X_INTRODUCED_105_,X_INTRODUCED_103_,X_INTRODUCED_101_,X_INTRODUCED_99_,X_INTRODUCED_97_,X_INTRODUCED_95_,X_INTRODUCED_93_,X_INTRODUCED_91_,X_INTRODUCED_89_]);
constraint all_different_int([X_INTRODUCED_87_,6,8,4,X_INTRODUCED_85_,1,X_INTRODUCED_83_,7,X_INTRODUCED_81_]);
constraint all_different_int([X_INTRODUCED_79_,X_INTRODUCED_77_,X_INTRODUCED_75_,X_INTRODUCED_73_,8,5,X_INTRODUCED_71_,3,X_INTRODUCED_69_]);
constraint all_different_int([X_INTRODUCED_67_,2,6,8,X_INTRODUCED_65_,9,X_INTRODUCED_63_,4,X_INTRODUCED_61_]);
constraint all_different_int([X_INTRODUCED_59_,X_INTRODUCED_57_,7,X_INTRODUCED_55_,X_INTRODUCED_53_,X_INTRODUCED_51_,9,X_INTRODUCED_49_,X_INTRODUCED_47_]);
constraint all_different_int([X_INTRODUCED_45_,5,X_INTRODUCED_43_,1,X_INTRODUCED_41_,6,3,2,X_INTRODUCED_39_]);
constraint all_different_int([X_INTRODUCED_37_,4,X_INTRODUCED_35_,6,1,X_INTRODUCED_33_,X_INTRODUCED_31_,X_INTRODUCED_29_,X_INTRODUCED_27_]);
constraint all_different_int([X_INTRODUCED_25_,3,X_INTRODUCED_23_,2,X_INTRODUCED_21_,7,6,9,X_INTRODUCED_19_]);
constraint all_different_int([X_INTRODUCED_17_,X_INTRODUCED_15_,X_INTRODUCED_13_,X_INTRODUCED_11_,X_INTRODUCED_9_,X_INTRODUCED_7_,X_INTRODUCED_5_,X_INTRODUCED_3_,X_INTRODUCED_1_]);
constraint all_different_int([X_INTRODUCED_105_,X_INTRODUCED_87_,X_INTRODUCED_79_,X_INTRODUCED_67_,X_INTRODUCED_59_,X_INTRODUCED_45_,X_INTRODUCED_37_,X_INTRODUCED_25_,X_INTRODUCED_17_]);
constraint all_different_int([X_INTRODUCED_103_,6,X_INTRODUCED_77_,2,X_INTRODUCED_57_,5,4,3,X_INTRODUCED_15_]);
constraint all_different_int([X_INTRODUCED_101_,8,X_INTRODUCED_75_,6,7,X_INTRODUCED_43_,X_INTRODUCED_35_,X_INTRODUCED_23_,X_INTRODUCED_13_]);
constraint all_different_int([X_INTRODUCED_99_,4,X_INTRODUCED_73_,8,X_INTRODUCED_55_,1,6,2,X_INTRODUCED_11_]);
constraint all_different_int([X_INTRODUCED_97_,X_INTRODUCED_85_,8,X_INTRODUCED_65_,X_INTRODUCED_53_,X_INTRODUCED_41_,1,X_INTRODUCED_21_,X_INTRODUCED_9_]);
constraint all_different_int([X_INTRODUCED_95_,1,5,9,X_INTRODUCED_51_,6,X_INTRODUCED_33_,7,X_INTRODUCED_7_]);
constraint all_different_int([X_INTRODUCED_93_,X_INTRODUCED_83_,X_INTRODUCED_71_,X_INTRODUCED_63_,9,3,X_INTRODUCED_31_,6,X_INTRODUCED_5_]);
constraint all_different_int([X_INTRODUCED_91_,7,3,4,X_INTRODUCED_49_,2,X_INTRODUCED_29_,9,X_INTRODUCED_3_]);
constraint all_different_int([X_INTRODUCED_89_,X_INTRODUCED_81_,X_INTRODUCED_69_,X_INTRODUCED_61_,X_INTRODUCED_47_,X_INTRODUCED_39_,X_INTRODUCED_27_,X_INTRODUCED_19_,X_INTRODUCED_1_]);
constraint all_different_int([X_INTRODUCED_105_,X_INTRODUCED_103_,X_INTRODUCED_101_,X_INTRODUCED_87_,6,8,X_INTRODUCED_79_,X_INTRODUCED_77_,X_INTRODUCED_75_]);
constraint all_different_int([X_INTRODUCED_99_,X_INTRODUCED_97_,X_INTRODUCED_95_,4,X_INTRODUCED_85_,1,X_INTRODUCED_73_,8,5]);
constraint all_different_int([X_INTRODUCED_93_,X_INTRODUCED_91_,X_INTRODUCED_89_,X_INTRODUCED_83_,7,X_INTRODUCED_81_,X_INTRODUCED_71_,3,X_INTRODUCED_69_]);
constraint all_different_int([X_INTRODUCED_67_,2,6,X_INTRODUCED_59_,X_INTRODUCED_57_,7,X_INTRODUCED_45_,5,X_INTRODUCED_43_]);
constraint all_different_int([8,X_INTRODUCED_65_,9,X_INTRODUCED_55_,X_INTRODUCED_53_,X_INTRODUCED_51_,1,X_INTRODUCED_41_,6]);
constraint all_different_int([X_INTRODUCED_63_,4,X_INTRODUCED_61_,9,X_INTRODUCED_49_,X_INTRODUCED_47_,3,2,X_INTRODUCED_39_]);
constraint all_different_int([X_INTRODUCED_37_,4,X_INTRODUCED_35_,X_INTRODUCED_25_,3,X_INTRODUCED_23_,X_INTRODUCED_17_,X_INTRODUCED_15_,X_INTRODUCED_13_]);
constraint all_different_int([6,1,X_INTRODUCED_33_,2,X_INTRODUCED_21_,7,X_INTRODUCED_11_,X_INTRODUCED_9_,X_INTRODUCED_7_]);
constraint all_different_int([X_INTRODUCED_31_,X_INTRODUCED_29_,X_INTRODUCED_27_,6,9,X_INTRODUCED_19_,X_INTRODUCED_5_,X_INTRODUCED_3_,X_INTRODUCED_1_]);
solve :: int_search(X_INTRODUCED_106_,input_order,indomain_min,complete) satisfy;
